Cu96 C2 Cl1 O45                         
   1.00000000000000     
    10.8279999999999994    0.0000000000000000    0.0000000000000000
    -8.1209790000000002   15.6875239999999998    0.0000000000000000
     0.0000000000000000    0.0000000000000000   23.6277000000000008
   Cu   C    Cl   O 
    96     2     1    45
Direct
  0.1438100000000020  0.1915600000000026  0.3456800000000015
  0.9991800000000026  0.9995800000000017  0.4391699999999972
  0.3373199999999983  0.1165700000000029  0.5712699999999984
  0.1983499999999978  0.2639100000000028  0.6648500000000013
  0.4095099999999974  0.2130000000000010  0.3325600000000009
  0.2565600000000003  0.0089299999999994  0.4508900000000011
  0.0812499999999972  0.1090099999999978  0.5552899999999994
  0.4466899999999967  0.2595299999999980  0.6602099999999993
  0.4189999999999969  0.0577299999999994  0.3273799999999980
  0.2553800000000024  0.1749300000000034  0.4567300000000003
  0.0903199999999984  0.2864000000000004  0.5604700000000022
  0.4246199999999973  0.0651399999999995  0.6777299999999968
  0.1676399999999987  0.0576999999999970  0.3280000000000030
  0.0070600000000027  0.1751999999999967  0.4570399999999992
  0.3393400000000000  0.2863200000000035  0.5603600000000029
  0.1722200000000029  0.0643600000000006  0.6767899999999969
  0.6434100000000029  0.1912400000000005  0.3449700000000036
  0.4991399999999970  0.9981500000000025  0.4379599999999968
  0.8382999999999967  0.1176499999999976  0.5719100000000026
  0.6943699999999993  0.2595499999999973  0.6640000000000015
  0.9099700000000013  0.2128099999999975  0.3327900000000028
  0.7574899999999971  0.0096399999999974  0.4512500000000017
  0.5809899999999999  0.1073400000000007  0.5528800000000018
  0.9430400000000034  0.2599900000000019  0.6603899999999996
  0.9192000000000036  0.0574500000000029  0.3281899999999993
  0.7556500000000028  0.1749599999999987  0.4565800000000024
  0.5901100000000028  0.2860599999999991  0.5601699999999994
  0.9253700000000009  0.0651399999999995  0.6771799999999999
  0.6672900000000013  0.0575100000000006  0.3275300000000030
  0.5068199999999976  0.1747299999999967  0.4562999999999988
  0.8389999999999986  0.2861499999999992  0.5603100000000012
  0.6728799999999993  0.0661800000000028  0.6782699999999977
  0.1332599999999999  0.5118799999999979  0.3378200000000007
  0.0032799999999966  0.3378700000000023  0.4457200000000014
  0.3348999999999975  0.4463500000000025  0.5744800000000012
  0.1344800000000035  0.5187999999999988  0.6674500000000023
  0.4012099999999990  0.5349799999999973  0.3222200000000015
  0.2579399999999978  0.3438500000000033  0.4563300000000012
  0.0923400000000001  0.4579700000000031  0.5615700000000032
  0.3903699999999972  0.5200099999999992  0.6637500000000003
  0.4080500000000029  0.3789299999999969  0.3278000000000034
  0.2526599999999988  0.5055800000000019  0.4516599999999968
  0.0890300000000011  0.6199500000000029  0.5498600000000025
  0.4244600000000034  0.3907799999999995  0.6546900000000022
  0.1601199999999992  0.3789200000000008  0.3278299999999987
  0.0050099999999986  0.5049899999999994  0.4523399999999995
  0.3410900000000012  0.6192399999999978  0.5528400000000033
  0.1623799999999989  0.3906300000000016  0.6546299999999974
  0.6341099999999997  0.5116900000000015  0.3383899999999969
  0.5035099999999986  0.3378200000000007  0.4456100000000021
  0.8336699999999979  0.4451299999999989  0.5754400000000004
  0.6442499999999995  0.5195300000000032  0.6671300000000002
  0.9001400000000004  0.5337800000000001  0.3204500000000010
  0.7573999999999970  0.3431899999999999  0.4564700000000030
  0.5945099999999996  0.4578699999999998  0.5613200000000020
  0.8953599999999966  0.5271800000000013  0.6629399999999990
  0.9078500000000034  0.3781999999999996  0.3274499999999989
  0.7528199999999998  0.5054999999999978  0.4524299999999997
  0.5874400000000009  0.6193799999999996  0.5524300000000011
  0.9149999999999991  0.3900900000000007  0.6569000000000003
  0.6594800000000021  0.3782899999999998  0.3274299999999997
  0.5061099999999996  0.5061299999999989  0.4517799999999994
  0.8412099999999967  0.6200400000000030  0.5493799999999993
  0.6697399999999973  0.3903099999999995  0.6570099999999996
  0.1319900000000018  0.8421799999999990  0.3432000000000031
  0.9971200000000024  0.6627599999999987  0.4279599999999988
  0.3341100000000026  0.7807699999999969  0.5600499999999968
  0.2039199999999965  0.9371200000000002  0.6586399999999983
  0.4078599999999994  0.8772599999999997  0.3282799999999995
  0.2533499999999975  0.6708799999999968  0.4433500000000024
  0.0814799999999991  0.7751099999999980  0.5491900000000030
  0.4225800000000035  0.8997900000000030  0.6691100000000034
  0.4105599999999967  0.7149199999999993  0.3220499999999973
  0.2546200000000027  0.8406599999999997  0.4465799999999973
  0.0812000000000026  0.9413800000000023  0.5532499999999985
  0.4167300000000012  0.7147399999999990  0.6573500000000010
  0.1614999999999966  0.7143700000000024  0.3207400000000007
  0.0067700000000031  0.8412500000000023  0.4468499999999977
  0.3298699999999997  0.9404699999999977  0.5525700000000029
  0.1533999999999978  0.7098599999999990  0.6614100000000036
  0.6323900000000009  0.8440000000000012  0.3425399999999996
  0.4967699999999979  0.6626800000000017  0.4306500000000000
  0.8369900000000001  0.7805499999999981  0.5602900000000020
  0.7026200000000031  0.9392300000000020  0.6599999999999966
  0.9083800000000011  0.8778799999999976  0.3290900000000008
  0.7534300000000016  0.6717000000000013  0.4435399999999987
  0.5782499999999970  0.7711100000000002  0.5555000000000021
  0.9259800000000027  0.8981700000000004  0.6685299999999970
  0.9099199999999996  0.7149000000000001  0.3209500000000034
  0.7543700000000015  0.8416899999999998  0.4462499999999991
  0.5805399999999992  0.9382099999999980  0.5540499999999966
  0.9116399999999985  0.7086800000000011  0.6616500000000016
  0.6620699999999999  0.7154299999999978  0.3222700000000032
  0.5075300000000027  0.8410000000000011  0.4460100000000011
  0.8288700000000020  0.9397900000000021  0.5549400000000020
  0.6540299999999988  0.7126000000000019  0.6573599999999971
  0.5443700000000007  0.5422700000000020  0.7278900000000021
  0.5643799999999999  0.4096100000000007  0.7156900000000022
  0.4809600000000032  0.6429199999999966  0.7167099999999991
  0.9923599999999979  0.9890600000000020  0.3589100000000016
  0.3340299999999985  0.1119899999999987  0.4907200000000032
  0.1613899999999973  0.2150200000000027  0.5892499999999998
  0.9999200000000030  0.9998700000000014  0.7074500000000015
  0.3350599999999986  0.1138600000000025  0.2920099999999977
  0.1779999999999973  0.2375400000000027  0.4213600000000000
  0.0000900000000001  0.0031699999999972  0.5194800000000015
  0.3514100000000013  0.1353599999999986  0.6508699999999976
  0.4911699999999968  0.9886699999999990  0.3577099999999973
  0.8342999999999989  0.1124300000000034  0.4913900000000027
  0.6594100000000012  0.2126999999999981  0.5872799999999998
  0.5005499999999969  0.0010100000000008  0.7086800000000011
  0.8357699999999966  0.1135400000000004  0.2923899999999975
  0.6780899999999974  0.2372000000000014  0.4206799999999973
  0.5033200000000022  0.0007799999999989  0.5181899999999970
  0.8518400000000028  0.1358499999999978  0.6516099999999980
  0.9909299999999988  0.3209900000000019  0.3658000000000001
  0.3383499999999984  0.4509699999999981  0.4909899999999965
  0.1763400000000033  0.5702300000000022  0.5921599999999998
  0.3224999999999980  0.4301800000000000  0.2878100000000003
  0.1708900000000000  0.5622699999999980  0.4116000000000000
  0.0131200000000007  0.3506599999999978  0.5255000000000010
  0.4905499999999989  0.3210499999999996  0.3657299999999992
  0.8373399999999975  0.4499799999999965  0.4917299999999969
  0.6789699999999996  0.5703299999999984  0.5914199999999994
  0.8213999999999970  0.4284699999999972  0.2870300000000015
  0.6730299999999971  0.5630900000000025  0.4118300000000019
  0.5127700000000033  0.3504799999999975  0.5253200000000007
  0.9832699999999974  0.6450200000000024  0.3483799999999988
  0.3341199999999986  0.7769699999999986  0.4791000000000025
  0.1584900000000005  0.8782300000000021  0.5880000000000010
  0.9809399999999968  0.6393899999999988  0.6902199999999965
  0.3327099999999987  0.7762900000000030  0.2890799999999984
  0.1793300000000002  0.9056300000000022  0.4121900000000025
  0.0053500000000000  0.6733300000000000  0.5075900000000004
  0.3364600000000024  0.7872100000000017  0.6407400000000010
  0.4846500000000020  0.6460399999999993  0.3508599999999973
  0.8317899999999980  0.7778199999999984  0.4794100000000014
  0.6580099999999973  0.8764400000000023  0.5911400000000029
  0.8320500000000024  0.7772700000000015  0.2895200000000031
  0.6799499999999981  0.9068800000000010  0.4119200000000021
  0.5039900000000017  0.6726099999999988  0.5104499999999987
  0.8430999999999997  0.7852099999999993  0.6409400000000005
  0.5483699999999985  0.5412800000000004  0.7917599999999965
  0.5604399999999998  0.4079699999999988  0.7795800000000028
 
  0.00000000E+00  0.00000000E+00  0.00000000E+00
  0.00000000E+00  0.00000000E+00  0.00000000E+00
  0.00000000E+00  0.00000000E+00  0.00000000E+00
  0.00000000E+00  0.00000000E+00  0.00000000E+00
  0.00000000E+00  0.00000000E+00  0.00000000E+00
  0.00000000E+00  0.00000000E+00  0.00000000E+00
  0.00000000E+00  0.00000000E+00  0.00000000E+00
  0.00000000E+00  0.00000000E+00  0.00000000E+00
  0.00000000E+00  0.00000000E+00  0.00000000E+00
  0.00000000E+00  0.00000000E+00  0.00000000E+00
  0.00000000E+00  0.00000000E+00  0.00000000E+00
  0.00000000E+00  0.00000000E+00  0.00000000E+00
  0.00000000E+00  0.00000000E+00  0.00000000E+00
  0.00000000E+00  0.00000000E+00  0.00000000E+00
  0.00000000E+00  0.00000000E+00  0.00000000E+00
  0.00000000E+00  0.00000000E+00  0.00000000E+00
  0.00000000E+00  0.00000000E+00  0.00000000E+00
  0.00000000E+00  0.00000000E+00  0.00000000E+00
  0.00000000E+00  0.00000000E+00  0.00000000E+00
  0.00000000E+00  0.00000000E+00  0.00000000E+00
  0.00000000E+00  0.00000000E+00  0.00000000E+00
  0.00000000E+00  0.00000000E+00  0.00000000E+00
  0.00000000E+00  0.00000000E+00  0.00000000E+00
  0.00000000E+00  0.00000000E+00  0.00000000E+00
  0.00000000E+00  0.00000000E+00  0.00000000E+00
  0.00000000E+00  0.00000000E+00  0.00000000E+00
  0.00000000E+00  0.00000000E+00  0.00000000E+00
  0.00000000E+00  0.00000000E+00  0.00000000E+00
  0.00000000E+00  0.00000000E+00  0.00000000E+00
  0.00000000E+00  0.00000000E+00  0.00000000E+00
  0.00000000E+00  0.00000000E+00  0.00000000E+00
  0.00000000E+00  0.00000000E+00  0.00000000E+00
  0.00000000E+00  0.00000000E+00  0.00000000E+00
  0.00000000E+00  0.00000000E+00  0.00000000E+00
  0.00000000E+00  0.00000000E+00  0.00000000E+00
  0.00000000E+00  0.00000000E+00  0.00000000E+00
  0.00000000E+00  0.00000000E+00  0.00000000E+00
  0.00000000E+00  0.00000000E+00  0.00000000E+00
  0.00000000E+00  0.00000000E+00  0.00000000E+00
  0.00000000E+00  0.00000000E+00  0.00000000E+00
  0.00000000E+00  0.00000000E+00  0.00000000E+00
  0.00000000E+00  0.00000000E+00  0.00000000E+00
  0.00000000E+00  0.00000000E+00  0.00000000E+00
  0.00000000E+00  0.00000000E+00  0.00000000E+00
  0.00000000E+00  0.00000000E+00  0.00000000E+00
  0.00000000E+00  0.00000000E+00  0.00000000E+00
  0.00000000E+00  0.00000000E+00  0.00000000E+00
  0.00000000E+00  0.00000000E+00  0.00000000E+00
  0.00000000E+00  0.00000000E+00  0.00000000E+00
  0.00000000E+00  0.00000000E+00  0.00000000E+00
  0.00000000E+00  0.00000000E+00  0.00000000E+00
  0.00000000E+00  0.00000000E+00  0.00000000E+00
  0.00000000E+00  0.00000000E+00  0.00000000E+00
  0.00000000E+00  0.00000000E+00  0.00000000E+00
  0.00000000E+00  0.00000000E+00  0.00000000E+00
  0.00000000E+00  0.00000000E+00  0.00000000E+00
  0.00000000E+00  0.00000000E+00  0.00000000E+00
  0.00000000E+00  0.00000000E+00  0.00000000E+00
  0.00000000E+00  0.00000000E+00  0.00000000E+00
  0.00000000E+00  0.00000000E+00  0.00000000E+00
  0.00000000E+00  0.00000000E+00  0.00000000E+00
  0.00000000E+00  0.00000000E+00  0.00000000E+00
  0.00000000E+00  0.00000000E+00  0.00000000E+00
  0.00000000E+00  0.00000000E+00  0.00000000E+00
  0.00000000E+00  0.00000000E+00  0.00000000E+00
  0.00000000E+00  0.00000000E+00  0.00000000E+00
  0.00000000E+00  0.00000000E+00  0.00000000E+00
  0.00000000E+00  0.00000000E+00  0.00000000E+00
  0.00000000E+00  0.00000000E+00  0.00000000E+00
  0.00000000E+00  0.00000000E+00  0.00000000E+00
  0.00000000E+00  0.00000000E+00  0.00000000E+00
  0.00000000E+00  0.00000000E+00  0.00000000E+00
  0.00000000E+00  0.00000000E+00  0.00000000E+00
  0.00000000E+00  0.00000000E+00  0.00000000E+00
  0.00000000E+00  0.00000000E+00  0.00000000E+00
  0.00000000E+00  0.00000000E+00  0.00000000E+00
  0.00000000E+00  0.00000000E+00  0.00000000E+00
  0.00000000E+00  0.00000000E+00  0.00000000E+00
  0.00000000E+00  0.00000000E+00  0.00000000E+00
  0.00000000E+00  0.00000000E+00  0.00000000E+00
  0.00000000E+00  0.00000000E+00  0.00000000E+00
  0.00000000E+00  0.00000000E+00  0.00000000E+00
  0.00000000E+00  0.00000000E+00  0.00000000E+00
  0.00000000E+00  0.00000000E+00  0.00000000E+00
  0.00000000E+00  0.00000000E+00  0.00000000E+00
  0.00000000E+00  0.00000000E+00  0.00000000E+00
  0.00000000E+00  0.00000000E+00  0.00000000E+00
  0.00000000E+00  0.00000000E+00  0.00000000E+00
  0.00000000E+00  0.00000000E+00  0.00000000E+00
  0.00000000E+00  0.00000000E+00  0.00000000E+00
  0.00000000E+00  0.00000000E+00  0.00000000E+00
  0.00000000E+00  0.00000000E+00  0.00000000E+00
  0.00000000E+00  0.00000000E+00  0.00000000E+00
  0.00000000E+00  0.00000000E+00  0.00000000E+00
  0.00000000E+00  0.00000000E+00  0.00000000E+00
  0.00000000E+00  0.00000000E+00  0.00000000E+00
  0.00000000E+00  0.00000000E+00  0.00000000E+00
  0.00000000E+00  0.00000000E+00  0.00000000E+00
  0.00000000E+00  0.00000000E+00  0.00000000E+00
  0.00000000E+00  0.00000000E+00  0.00000000E+00
  0.00000000E+00  0.00000000E+00  0.00000000E+00
  0.00000000E+00  0.00000000E+00  0.00000000E+00
  0.00000000E+00  0.00000000E+00  0.00000000E+00
  0.00000000E+00  0.00000000E+00  0.00000000E+00
  0.00000000E+00  0.00000000E+00  0.00000000E+00
  0.00000000E+00  0.00000000E+00  0.00000000E+00
  0.00000000E+00  0.00000000E+00  0.00000000E+00
  0.00000000E+00  0.00000000E+00  0.00000000E+00
  0.00000000E+00  0.00000000E+00  0.00000000E+00
  0.00000000E+00  0.00000000E+00  0.00000000E+00
  0.00000000E+00  0.00000000E+00  0.00000000E+00
  0.00000000E+00  0.00000000E+00  0.00000000E+00
  0.00000000E+00  0.00000000E+00  0.00000000E+00
  0.00000000E+00  0.00000000E+00  0.00000000E+00
  0.00000000E+00  0.00000000E+00  0.00000000E+00
  0.00000000E+00  0.00000000E+00  0.00000000E+00
  0.00000000E+00  0.00000000E+00  0.00000000E+00
  0.00000000E+00  0.00000000E+00  0.00000000E+00
  0.00000000E+00  0.00000000E+00  0.00000000E+00
  0.00000000E+00  0.00000000E+00  0.00000000E+00
  0.00000000E+00  0.00000000E+00  0.00000000E+00
  0.00000000E+00  0.00000000E+00  0.00000000E+00
  0.00000000E+00  0.00000000E+00  0.00000000E+00
  0.00000000E+00  0.00000000E+00  0.00000000E+00
  0.00000000E+00  0.00000000E+00  0.00000000E+00
  0.00000000E+00  0.00000000E+00  0.00000000E+00
  0.00000000E+00  0.00000000E+00  0.00000000E+00
  0.00000000E+00  0.00000000E+00  0.00000000E+00
  0.00000000E+00  0.00000000E+00  0.00000000E+00
  0.00000000E+00  0.00000000E+00  0.00000000E+00
  0.00000000E+00  0.00000000E+00  0.00000000E+00
  0.00000000E+00  0.00000000E+00  0.00000000E+00
  0.00000000E+00  0.00000000E+00  0.00000000E+00
  0.00000000E+00  0.00000000E+00  0.00000000E+00
  0.00000000E+00  0.00000000E+00  0.00000000E+00
  0.00000000E+00  0.00000000E+00  0.00000000E+00
  0.00000000E+00  0.00000000E+00  0.00000000E+00
  0.00000000E+00  0.00000000E+00  0.00000000E+00
  0.00000000E+00  0.00000000E+00  0.00000000E+00
  0.00000000E+00  0.00000000E+00  0.00000000E+00
  0.00000000E+00  0.00000000E+00  0.00000000E+00
  0.00000000E+00  0.00000000E+00  0.00000000E+00
  0.00000000E+00  0.00000000E+00  0.00000000E+00
  0.00000000E+00  0.00000000E+00  0.00000000E+00
