Cu96 C2 Cl1 O45
1.0
10.828000 0.000000 0.000000
-8.120979 15.687524 0.000000
0.000000 0.000000 23.627700
Cu C Cl O
96 2 1 45
direct
0.143810 0.191560 0.345680 Cu
0.999180 0.999580 0.439170 Cu
0.337320 0.116570 0.571270 Cu
0.198350 0.263910 0.664850 Cu
0.409510 0.213000 0.332560 Cu
0.256560 0.008930 0.450890 Cu
0.081250 0.109010 0.555290 Cu
0.446690 0.259530 0.660210 Cu
0.419000 0.057730 0.327380 Cu
0.255380 0.174930 0.456730 Cu
0.090320 0.286400 0.560470 Cu
0.424620 0.065140 0.677730 Cu
0.167640 0.057700 0.328000 Cu
0.007060 0.175200 0.457040 Cu
0.339340 0.286320 0.560360 Cu
0.172220 0.064360 0.676790 Cu
0.643410 0.191240 0.344970 Cu
0.499140 0.998150 0.437960 Cu
0.838300 0.117650 0.571910 Cu
0.694370 0.259550 0.664000 Cu
0.909970 0.212810 0.332790 Cu
0.757490 0.009640 0.451250 Cu
0.580990 0.107340 0.552880 Cu
0.943040 0.259990 0.660390 Cu
0.919200 0.057450 0.328190 Cu
0.755650 0.174960 0.456580 Cu
0.590110 0.286060 0.560170 Cu
0.925370 0.065140 0.677180 Cu
0.667290 0.057510 0.327530 Cu
0.506820 0.174730 0.456300 Cu
0.839000 0.286150 0.560310 Cu
0.672880 0.066180 0.678270 Cu
0.133260 0.511880 0.337820 Cu
0.003280 0.337870 0.445720 Cu
0.334900 0.446350 0.574480 Cu
0.134480 0.518800 0.667450 Cu
0.401210 0.534980 0.322220 Cu
0.257940 0.343850 0.456330 Cu
0.092340 0.457970 0.561570 Cu
0.390370 0.520010 0.663750 Cu
0.408050 0.378930 0.327800 Cu
0.252660 0.505580 0.451660 Cu
0.089030 0.619950 0.549860 Cu
0.424460 0.390780 0.654690 Cu
0.160120 0.378920 0.327830 Cu
0.005010 0.504990 0.452340 Cu
0.341090 0.619240 0.552840 Cu
0.162380 0.390630 0.654630 Cu
0.634110 0.511690 0.338390 Cu
0.503510 0.337820 0.445610 Cu
0.833670 0.445130 0.575440 Cu
0.644250 0.519530 0.667130 Cu
0.900140 0.533780 0.320450 Cu
0.757400 0.343190 0.456470 Cu
0.594510 0.457870 0.561320 Cu
0.895360 0.527180 0.662940 Cu
0.907850 0.378200 0.327450 Cu
0.752820 0.505500 0.452430 Cu
0.587440 0.619380 0.552430 Cu
0.915000 0.390090 0.656900 Cu
0.659480 0.378290 0.327430 Cu
0.506110 0.506130 0.451780 Cu
0.841210 0.620040 0.549380 Cu
0.669740 0.390310 0.657010 Cu
0.131990 0.842180 0.343200 Cu
0.997120 0.662760 0.427960 Cu
0.334110 0.780770 0.560050 Cu
0.203920 0.937120 0.658640 Cu
0.407860 0.877260 0.328280 Cu
0.253350 0.670880 0.443350 Cu
0.081480 0.775110 0.549190 Cu
0.422580 0.899790 0.669110 Cu
0.410560 0.714920 0.322050 Cu
0.254620 0.840660 0.446580 Cu
0.081200 0.941380 0.553250 Cu
0.416730 0.714740 0.657350 Cu
0.161500 0.714370 0.320740 Cu
0.006770 0.841250 0.446850 Cu
0.329870 0.940470 0.552570 Cu
0.153400 0.709860 0.661410 Cu
0.632390 0.844000 0.342540 Cu
0.496770 0.662680 0.430650 Cu
0.836990 0.780550 0.560290 Cu
0.702620 0.939230 0.660000 Cu
0.908380 0.877880 0.329090 Cu
0.753430 0.671700 0.443540 Cu
0.578250 0.771110 0.555500 Cu
0.925980 0.898170 0.668530 Cu
0.909920 0.714900 0.320950 Cu
0.754370 0.841690 0.446250 Cu
0.580540 0.938210 0.554050 Cu
0.911640 0.708680 0.661650 Cu
0.662070 0.715430 0.322270 Cu
0.507530 0.841000 0.446010 Cu
0.828870 0.939790 0.554940 Cu
0.654030 0.712600 0.657360 Cu
0.544370 0.542270 0.727890 C
0.564380 0.409610 0.715690 C
0.480960 0.642920 0.716710 Cl
0.992360 0.989060 0.358910 O
0.334030 0.111990 0.490720 O
0.161390 0.215020 0.589250 O
0.999920 0.999870 0.707450 O
0.335060 0.113860 0.292010 O
0.178000 0.237540 0.421360 O
0.000090 0.003170 0.519480 O
0.351410 0.135360 0.650870 O
0.491170 0.988670 0.357710 O
0.834300 0.112430 0.491390 O
0.659410 0.212700 0.587280 O
0.500550 0.001010 0.708680 O
0.835770 0.113540 0.292390 O
0.678090 0.237200 0.420680 O
0.503320 0.000780 0.518190 O
0.851840 0.135850 0.651610 O
0.990930 0.320990 0.365800 O
0.338350 0.450970 0.490990 O
0.176340 0.570230 0.592160 O
0.322500 0.430180 0.287810 O
0.170890 0.562270 0.411600 O
0.013120 0.350660 0.525500 O
0.490550 0.321050 0.365730 O
0.837340 0.449980 0.491730 O
0.678970 0.570330 0.591420 O
0.821400 0.428470 0.287030 O
0.673030 0.563090 0.411830 O
0.512770 0.350480 0.525320 O
0.983270 0.645020 0.348380 O
0.334120 0.776970 0.479100 O
0.158490 0.878230 0.588000 O
0.980940 0.639390 0.690220 O
0.332710 0.776290 0.289080 O
0.179330 0.905630 0.412190 O
0.005350 0.673330 0.507590 O
0.336460 0.787210 0.640740 O
0.484650 0.646040 0.350860 O
0.831790 0.777820 0.479410 O
0.658010 0.876440 0.591140 O
0.832050 0.777270 0.289520 O
0.679950 0.906880 0.411920 O
0.503990 0.672610 0.510450 O
0.843100 0.785210 0.640940 O
0.548370 0.541280 0.791760 O
0.560440 0.407970 0.779580 O
